;; produced by cvc4_16.drv ;;
(set-logic AUFFPBVFPDTNIRA)
(set-info :source |VC generated by SPARK 2014|)
(set-info :smt-lib-version 2.5)
(set-info :category industrial)
(set-info :status unknown)
;;; generated by SMT-LIB2 driver
;;; SMT-LIB2 driver: bit-vectors, common part
;;; SMT-LIB2: integer arithmetic
(declare-datatypes () ((tuple0 (Tuple0))))
(declare-sort us_private 0)

(declare-fun private__bool_eq (us_private us_private) Bool)

(declare-const us_null_ext__ us_private)

(declare-sort us_type_of_heap 0)

(declare-datatypes ()
((us_type_of_heap__ref
 (mk___type_of_heap__ref (us_type_of_heap__content us_type_of_heap)))))
(declare-sort us_image 0)

(declare-datatypes () ((int__ref (mk_int__ref (int__content Int)))))
(declare-datatypes () ((bool__ref (mk_bool__ref (bool__content Bool)))))
(declare-datatypes () ((real__ref (mk_real__ref (real__content Real)))))
(declare-datatypes ()
((us_private__ref (mk___private__ref (us_private__content us_private)))))
(define-fun int__ref___projection ((a int__ref)) Int (int__content a))

(define-fun bool__ref___projection ((a bool__ref)) Bool (bool__content a))

(define-fun real__ref___projection ((a real__ref)) Real (real__content a))

(define-fun us_private__ref___projection ((a us_private__ref)) us_private
  (us_private__content a))

(declare-sort us_main_type 0)

(declare-fun us_main_eq (us_main_type us_main_type) Bool)

(declare-sort us_rep 0)

(declare-fun bool_eq (us_rep us_rep) Bool)

(declare-const value__size Int)

(declare-fun object__size (us_rep) Int)

(declare-const value__alignment Int)

(declare-fun object__alignment (us_rep) Int)

;; value__size_axiom
  (assert (<= 0 value__size))

;; object__size_axiom
  (assert (forall ((a us_rep)) (<= 0 (object__size a))))

;; value__alignment_axiom
  (assert (<= 0 value__alignment))

;; object__alignment_axiom
  (assert (forall ((a us_rep)) (<= 0 (object__alignment a))))

(declare-fun user_eq (us_rep us_rep) Bool)

(declare-const dummy us_rep)

(declare-datatypes ()
((simple_priv__ref (mk_simple_priv__ref (simple_priv__content us_rep)))))
(define-fun simple_priv__ref___projection ((a simple_priv__ref)) us_rep
  (simple_priv__content a))

(declare-fun simple_priv_ok (us_rep) Bool)

(declare-fun simple_priv_ok__function_guard (Bool us_rep) Bool)

(define-fun default_initial_assumption ((temp___expr_138 us_rep)
  (temp___skip_top_level_139 Bool)) Bool (=>
                                         (not
                                         (= temp___skip_top_level_139 true))
                                         (= (simple_priv_ok temp___expr_138) true)))

(declare-sort us_main_type1 0)

(declare-fun us_main_eq1 (us_main_type1 us_main_type1) Bool)

(declare-sort us_rep1 0)

(declare-fun bool_eq1 (us_rep1 us_rep1) Bool)

(declare-const value__size1 Int)

(declare-fun object__size1 (us_rep1) Int)

(declare-const value__alignment1 Int)

(declare-fun object__alignment1 (us_rep1) Int)

;; value__size_axiom
  (assert (<= 0 value__size1))

;; object__size_axiom
  (assert (forall ((a us_rep1)) (<= 0 (object__size1 a))))

;; value__alignment_axiom
  (assert (<= 0 value__alignment1))

;; object__alignment_axiom
  (assert (forall ((a us_rep1)) (<= 0 (object__alignment1 a))))

(declare-fun user_eq1 (us_rep1 us_rep1) Bool)

(declare-const dummy1 us_rep1)

(declare-datatypes ()
((wrong_priv__ref (mk_wrong_priv__ref (wrong_priv__content us_rep1)))))
(define-fun wrong_priv__ref___projection ((a wrong_priv__ref)) us_rep1
  (wrong_priv__content a))

(declare-fun wrong_priv_ok (us_rep1) Bool)

(declare-fun wrong_priv_ok__function_guard (Bool us_rep1) Bool)

(define-fun default_initial_assumption1 ((temp___expr_145 us_rep1)
  (temp___skip_top_level_146 Bool)) Bool (=>
                                         (not
                                         (= temp___skip_top_level_146 true))
                                         (= (wrong_priv_ok temp___expr_145) true)))

(declare-sort us_main_type2 0)

(declare-fun us_main_eq2 (us_main_type2 us_main_type2) Bool)

(declare-sort us_rep2 0)

(declare-fun bool_eq2 (us_rep2 us_rep2) Bool)

(declare-const value__size2 Int)

(declare-fun object__size2 (us_rep2) Int)

(declare-const value__alignment2 Int)

(declare-fun object__alignment2 (us_rep2) Int)

;; value__size_axiom
  (assert (<= 0 value__size2))

;; object__size_axiom
  (assert (forall ((a us_rep2)) (<= 0 (object__size2 a))))

;; value__alignment_axiom
  (assert (<= 0 value__alignment2))

;; object__alignment_axiom
  (assert (forall ((a us_rep2)) (<= 0 (object__alignment2 a))))

(declare-fun user_eq2 (us_rep2 us_rep2) Bool)

(declare-const dummy2 us_rep2)

(declare-datatypes ()
((priv_with_glob__ref
 (mk_priv_with_glob__ref (priv_with_glob__content us_rep2)))))
(define-fun priv_with_glob__ref___projection ((a priv_with_glob__ref)) us_rep2
  (priv_with_glob__content a))

(declare-fun priv_with_glob_ok (us_rep2 us_private) Bool)

(declare-fun priv_with_glob_ok__function_guard (Bool us_rep2
  us_private) Bool)

(define-fun default_initial_assumption2 ((temp___expr_152 us_rep2)
  (temp___skip_top_level_153 Bool)
  (private_default__glob us_private)) Bool (=>
                                           (not
                                           (= temp___skip_top_level_153 true))
                                           (= (priv_with_glob_ok
                                              temp___expr_152
                                              private_default__glob) true)))

(declare-const attr__ATTRIBUTE_ADDRESS Int)

(declare-const attr__ATTRIBUTE_ADDRESS1 Int)

(declare-const attr__ATTRIBUTE_ADDRESS2 Int)

(declare-const p1 us_rep)

(declare-const p2 us_rep1)

(declare-const p3 us_rep2)

(declare-const glob us_private)

;; H
  (assert (= (simple_priv_ok p1) true))

;; H
  (assert (= (wrong_priv_ok p2) true))

;; H
  (assert (= (priv_with_glob_ok p3 glob) true))

;; H
  (assert (= (simple_priv_ok p1) true))

;; H
  (assert (= (wrong_priv_ok p2) true))

;; H
  (assert (= (priv_with_glob_ok p3 glob) true))

(assert
;; WP_parameter_def
 ;; File "default_init.ads", line 99, characters 0-0
  (not (= (simple_priv_ok p1) true)))
(check-sat)
(exit)
